solution status: optimal solution found
objective value:                                    0
X#1#2#16                                            1 	(obj:0)
X#1#3#13                                            1 	(obj:0)
X#1#4#8                                             1 	(obj:0)
X#1#5#5                                             1 	(obj:0)
X#1#6#1                                             1 	(obj:0)
X#1#7#11                                            1 	(obj:0)
X#1#8#14                                            1 	(obj:0)
X#1#9#4                                             1 	(obj:0)
X#1#10#17                                           1 	(obj:0)
X#2#1#3                                             1 	(obj:0)
X#2#3#15                                            1 	(obj:0)
X#2#4#2                                             1 	(obj:0)
X#2#5#7                                             1 	(obj:0)
X#2#6#4                                             1 	(obj:0)
X#2#7#18                                            1 	(obj:0)
X#2#8#11                                            1 	(obj:0)
X#2#9#10                                            1 	(obj:0)
X#2#10#5                                            1 	(obj:0)
X#3#1#2                                             1 	(obj:0)
X#3#2#9                                             1 	(obj:0)
X#3#4#4                                             1 	(obj:0)
X#3#5#16                                            1 	(obj:0)
X#3#6#14                                            1 	(obj:0)
X#3#7#7                                             1 	(obj:0)
X#3#8#18                                            1 	(obj:0)
X#3#9#5                                             1 	(obj:0)
X#3#10#11                                           1 	(obj:0)
X#4#1#18                                            1 	(obj:0)
X#4#2#12                                            1 	(obj:0)
X#4#3#10                                            1 	(obj:0)
X#4#5#1                                             1 	(obj:0)
X#4#6#7                                             1 	(obj:0)
X#4#7#14                                            1 	(obj:0)
X#4#8#5                                             1 	(obj:0)
X#4#9#3                                             1 	(obj:0)
X#4#10#16                                           1 	(obj:0)
X#5#1#15                                            1 	(obj:0)
X#5#2#13                                            1 	(obj:0)
X#5#3#6                                             1 	(obj:0)
X#5#4#11                                            1 	(obj:0)
X#5#6#18                                            1 	(obj:0)
X#5#7#3                                             1 	(obj:0)
X#5#8#10                                            1 	(obj:0)
X#5#9#8                                             1 	(obj:0)
X#5#10#2                                            1 	(obj:0)
X#6#1#10                                            1 	(obj:0)
X#6#2#17                                            1 	(obj:0)
X#6#3#3                                             1 	(obj:0)
X#6#4#13                                            1 	(obj:0)
X#6#5#9                                             1 	(obj:0)
X#6#7#16                                            1 	(obj:0)
X#6#8#2                                             1 	(obj:0)
X#6#9#11                                            1 	(obj:0)
X#6#10#8                                            1 	(obj:0)
X#7#1#6                                             1 	(obj:0)
X#7#2#8                                             1 	(obj:0)
X#7#3#12                                            1 	(obj:0)
X#7#4#9                                             1 	(obj:0)
X#7#5#17                                            1 	(obj:0)
X#7#6#5                                             1 	(obj:0)
X#7#8#15                                            1 	(obj:0)
X#7#9#13                                            1 	(obj:0)
X#7#10#4                                            1 	(obj:0)
X#8#1#9                                             1 	(obj:0)
X#8#2#6                                             1 	(obj:0)
X#8#3#8                                             1 	(obj:0)
X#8#4#17                                            1 	(obj:0)
X#8#5#4                                             1 	(obj:0)
X#8#6#12                                            1 	(obj:0)
X#8#7#1                                             1 	(obj:0)
X#8#9#16                                            1 	(obj:0)
X#8#10#13                                           1 	(obj:0)
X#9#1#12                                            1 	(obj:0)
X#9#2#1                                             1 	(obj:0)
X#9#3#17                                            1 	(obj:0)
X#9#4#15                                            1 	(obj:0)
X#9#5#14                                            1 	(obj:0)
X#9#6#6                                             1 	(obj:0)
X#9#7#2                                             1 	(obj:0)
X#9#8#7                                             1 	(obj:0)
X#9#10#9                                            1 	(obj:0)
X#10#1#7                                            1 	(obj:0)
X#10#2#14                                           1 	(obj:0)
X#10#3#1                                            1 	(obj:0)
X#10#4#6                                            1 	(obj:0)
X#10#5#12                                           1 	(obj:0)
X#10#6#15                                           1 	(obj:0)
X#10#7#10                                           1 	(obj:0)
X#10#8#3                                            1 	(obj:0)
X#10#9#18                                           1 	(obj:0)
Y#1#1                                               1 	(obj:0)
Y#1#5                                               1 	(obj:0)
Y#1#11                                              1 	(obj:0)
Y#1#17                                              1 	(obj:0)
Y#2#5                                               1 	(obj:0)
Y#2#7                                               1 	(obj:0)
Y#2#11                                              1 	(obj:0)
Y#2#15                                              1 	(obj:0)
Y#3#5                                               1 	(obj:0)
Y#3#7                                               1 	(obj:0)
Y#3#9                                               1 	(obj:0)
Y#3#11                                              1 	(obj:0)
Y#4#1                                               1 	(obj:0)
Y#4#3                                               1 	(obj:0)
Y#4#5                                               1 	(obj:0)
Y#4#7                                               1 	(obj:0)
Y#5#3                                               1 	(obj:0)
Y#5#11                                              1 	(obj:0)
Y#5#13                                              1 	(obj:0)
Y#5#15                                              1 	(obj:0)
Y#6#3                                               1 	(obj:0)
Y#6#11                                              1 	(obj:0)
Y#6#13                                              1 	(obj:0)
Y#6#17                                              1 	(obj:0)
Y#7#9                                               1 	(obj:0)
Y#7#13                                              1 	(obj:0)
Y#7#15                                              1 	(obj:0)
Y#7#17                                              1 	(obj:0)
Y#8#1                                               1 	(obj:0)
Y#8#9                                               1 	(obj:0)
Y#8#13                                              1 	(obj:0)
Y#8#17                                              1 	(obj:0)
Y#9#7                                               1 	(obj:0)
Y#9#9                                               1 	(obj:0)
Y#9#15                                              1 	(obj:0)
Y#9#17                                              1 	(obj:0)
Y#10#1                                              1 	(obj:0)
Y#10#3                                              1 	(obj:0)
Y#10#7                                              1 	(obj:0)
Y#10#15                                             1 	(obj:0)
W#1#9                                               1 	(obj:0)
W#2#13                                              1 	(obj:0)
W#6#5                                               1 	(obj:0)
W#7#1                                               1 	(obj:0)
W#9#3                                               1 	(obj:0)
